10J3M/DAT/10J3MULR-13.dat
10 3
11.0259 47.1103
11.1171 3.9654
38.5541 21.558
36.4001 24.7172
18.6394 6.957
40.8303 48.219
17.1901 48.1809
26.0466 42.2197
13.8157 47.1986
7.3011 17.9563
102.6941