10J3M/SOL/10J3MULR-13.sol
solution status: optimal solution found
objective value:                      75.991430066032
x#1#2                                               1 	(obj:0)
x#2#1                                               1 	(obj:0)
x#3#3                                               1 	(obj:0)
x#4#2                                               1 	(obj:0)
x#5#2                               0.287610346779193 	(obj:0)
x#5#3                               0.712389653220807 	(obj:0)
x#6#1                               0.601097718583766 	(obj:0)
x#6#3                               0.398902281416234 	(obj:0)
x#7#2                               0.999996389722261 	(obj:0)
x#8#1                               0.751925222072202 	(obj:0)
x#8#2                               0.248074777927798 	(obj:0)
x#9#2                                               1 	(obj:0)
x#10#1                              0.235444184698583 	(obj:0)
x#10#3                              0.764555815301417 	(obj:0)
z                                     75.991430066032 	(obj:1)
